c turning on binary mode checking
c parsing input formula with 259840 variables and 1039924 clauses
c finished parsing, read 4100878 bytes from proof file
c detected empty clause; start verification via backward checking
c 2673 of 1039924 clauses in core                            
c 918 of 145660 lemmas in core using 19489 resolution steps
c 0 RAT lemmas in core; 96 redundant literals in core lemmas
s VERIFIED
c verification time: 1.903 seconds
